56342925187860668035014,11,1,2,09,5,1,2,011,3,1,2,06,6,1,2,03,10,1,2,07,9,1,2,02,2,1,2,015,15,1,2,014,6,1,2,010,6,1,2,07,7,1,2,07,2,1,2,011,4,1,2,03,4,1,2,02,3,1,2,02,3,1,2,05,7,1,2,03,6,1,2,08,15,1,2,015,2,1,2,013,6,1,2,015,11,1,2,06,10,1,2,010,15,1,2,014,9,1,2,05,4,1,2,04,1,1,2,05,9,1,2,012,13,1,2,03,10,1,2,04,5,1,2,011,9,1,2,010,9,1,2,07,2,1,2,012,3,1,2,013,5,1,2,01,12,1,2,012,4,1,2,02,8,1,2,09,13,1,2,01,3,1,2,03,9,1,2,011,14,1,2,01,8,1,2,014,1,1,2,05,1,1,2,01,12,1,2,02,5,1,2,015,14,1,2,010,13,1,2,0